p cnf 200 2780
1 2 3 4 5 0
6 7 8 9 10 0
11 12 13 14 15 0
16 17 18 19 20 0
21 22 23 24 25 0
26 27 28 29 30 0
31 32 33 34 35 0
36 37 38 39 40 0
41 42 43 44 45 0
46 47 48 49 50 0
51 52 53 54 55 0
56 57 58 59 60 0
61 62 63 64 65 0
66 67 68 69 70 0
71 72 73 74 75 0
76 77 78 79 80 0
81 82 83 84 85 0
86 87 88 89 90 0
91 92 93 94 95 0
96 97 98 99 100 0
101 102 103 104 105 0
106 107 108 109 110 0
111 112 113 114 115 0
116 117 118 119 120 0
121 122 123 124 125 0
126 127 128 129 130 0
131 132 133 134 135 0
136 137 138 139 140 0
141 142 143 144 145 0
146 147 148 149 150 0
151 152 153 154 155 0
156 157 158 159 160 0
161 162 163 164 165 0
166 167 168 169 170 0
171 172 173 174 175 0
176 177 178 179 180 0
181 182 183 184 185 0
186 187 188 189 190 0
191 192 193 194 195 0
196 197 198 199 200 0
-1 -2 0
-1 -3 0
-1 -4 0
-1 -5 0
-2 -3 0
-2 -4 0
-2 -5 0
-3 -4 0
-3 -5 0
-4 -5 0
-6 -7 0
-6 -8 0
-6 -9 0
-6 -10 0
-7 -8 0
-7 -9 0
-7 -10 0
-8 -9 0
-8 -10 0
-9 -10 0
-11 -12 0
-11 -13 0
-11 -14 0
-11 -15 0
-12 -13 0
-12 -14 0
-12 -15 0
-13 -14 0
-13 -15 0
-14 -15 0
-16 -17 0
-16 -18 0
-16 -19 0
-16 -20 0
-17 -18 0
-17 -19 0
-17 -20 0
-18 -19 0
-18 -20 0
-19 -20 0
-21 -22 0
-21 -23 0
-21 -24 0
-21 -25 0
-22 -23 0
-22 -24 0
-22 -25 0
-23 -24 0
-23 -25 0
-24 -25 0
-26 -27 0
-26 -28 0
-26 -29 0
-26 -30 0
-27 -28 0
-27 -29 0
-27 -30 0
-28 -29 0
-28 -30 0
-29 -30 0
-31 -32 0
-31 -33 0
-31 -34 0
-31 -35 0
-32 -33 0
-32 -34 0
-32 -35 0
-33 -34 0
-33 -35 0
-34 -35 0
-36 -37 0
-36 -38 0
-36 -39 0
-36 -40 0
-37 -38 0
-37 -39 0
-37 -40 0
-38 -39 0
-38 -40 0
-39 -40 0
-41 -42 0
-41 -43 0
-41 -44 0
-41 -45 0
-42 -43 0
-42 -44 0
-42 -45 0
-43 -44 0
-43 -45 0
-44 -45 0
-46 -47 0
-46 -48 0
-46 -49 0
-46 -50 0
-47 -48 0
-47 -49 0
-47 -50 0
-48 -49 0
-48 -50 0
-49 -50 0
-51 -52 0
-51 -53 0
-51 -54 0
-51 -55 0
-52 -53 0
-52 -54 0
-52 -55 0
-53 -54 0
-53 -55 0
-54 -55 0
-56 -57 0
-56 -58 0
-56 -59 0
-56 -60 0
-57 -58 0
-57 -59 0
-57 -60 0
-58 -59 0
-58 -60 0
-59 -60 0
-61 -62 0
-61 -63 0
-61 -64 0
-61 -65 0
-62 -63 0
-62 -64 0
-62 -65 0
-63 -64 0
-63 -65 0
-64 -65 0
-66 -67 0
-66 -68 0
-66 -69 0
-66 -70 0
-67 -68 0
-67 -69 0
-67 -70 0
-68 -69 0
-68 -70 0
-69 -70 0
-71 -72 0
-71 -73 0
-71 -74 0
-71 -75 0
-72 -73 0
-72 -74 0
-72 -75 0
-73 -74 0
-73 -75 0
-74 -75 0
-76 -77 0
-76 -78 0
-76 -79 0
-76 -80 0
-77 -78 0
-77 -79 0
-77 -80 0
-78 -79 0
-78 -80 0
-79 -80 0
-81 -82 0
-81 -83 0
-81 -84 0
-81 -85 0
-82 -83 0
-82 -84 0
-82 -85 0
-83 -84 0
-83 -85 0
-84 -85 0
-86 -87 0
-86 -88 0
-86 -89 0
-86 -90 0
-87 -88 0
-87 -89 0
-87 -90 0
-88 -89 0
-88 -90 0
-89 -90 0
-91 -92 0
-91 -93 0
-91 -94 0
-91 -95 0
-92 -93 0
-92 -94 0
-92 -95 0
-93 -94 0
-93 -95 0
-94 -95 0
-96 -97 0
-96 -98 0
-96 -99 0
-96 -100 0
-97 -98 0
-97 -99 0
-97 -100 0
-98 -99 0
-98 -100 0
-99 -100 0
-101 -102 0
-101 -103 0
-101 -104 0
-101 -105 0
-102 -103 0
-102 -104 0
-102 -105 0
-103 -104 0
-103 -105 0
-104 -105 0
-106 -107 0
-106 -108 0
-106 -109 0
-106 -110 0
-107 -108 0
-107 -109 0
-107 -110 0
-108 -109 0
-108 -110 0
-109 -110 0
-111 -112 0
-111 -113 0
-111 -114 0
-111 -115 0
-112 -113 0
-112 -114 0
-112 -115 0
-113 -114 0
-113 -115 0
-114 -115 0
-116 -117 0
-116 -118 0
-116 -119 0
-116 -120 0
-117 -118 0
-117 -119 0
-117 -120 0
-118 -119 0
-118 -120 0
-119 -120 0
-121 -122 0
-121 -123 0
-121 -124 0
-121 -125 0
-122 -123 0
-122 -124 0
-122 -125 0
-123 -124 0
-123 -125 0
-124 -125 0
-126 -127 0
-126 -128 0
-126 -129 0
-126 -130 0
-127 -128 0
-127 -129 0
-127 -130 0
-128 -129 0
-128 -130 0
-129 -130 0
-131 -132 0
-131 -133 0
-131 -134 0
-131 -135 0
-132 -133 0
-132 -134 0
-132 -135 0
-133 -134 0
-133 -135 0
-134 -135 0
-136 -137 0
-136 -138 0
-136 -139 0
-136 -140 0
-137 -138 0
-137 -139 0
-137 -140 0
-138 -139 0
-138 -140 0
-139 -140 0
-141 -142 0
-141 -143 0
-141 -144 0
-141 -145 0
-142 -143 0
-142 -144 0
-142 -145 0
-143 -144 0
-143 -145 0
-144 -145 0
-146 -147 0
-146 -148 0
-146 -149 0
-146 -150 0
-147 -148 0
-147 -149 0
-147 -150 0
-148 -149 0
-148 -150 0
-149 -150 0
-151 -152 0
-151 -153 0
-151 -154 0
-151 -155 0
-152 -153 0
-152 -154 0
-152 -155 0
-153 -154 0
-153 -155 0
-154 -155 0
-156 -157 0
-156 -158 0
-156 -159 0
-156 -160 0
-157 -158 0
-157 -159 0
-157 -160 0
-158 -159 0
-158 -160 0
-159 -160 0
-161 -162 0
-161 -163 0
-161 -164 0
-161 -165 0
-162 -163 0
-162 -164 0
-162 -165 0
-163 -164 0
-163 -165 0
-164 -165 0
-166 -167 0
-166 -168 0
-166 -169 0
-166 -170 0
-167 -168 0
-167 -169 0
-167 -170 0
-168 -169 0
-168 -170 0
-169 -170 0
-171 -172 0
-171 -173 0
-171 -174 0
-171 -175 0
-172 -173 0
-172 -174 0
-172 -175 0
-173 -174 0
-173 -175 0
-174 -175 0
-176 -177 0
-176 -178 0
-176 -179 0
-176 -180 0
-177 -178 0
-177 -179 0
-177 -180 0
-178 -179 0
-178 -180 0
-179 -180 0
-181 -182 0
-181 -183 0
-181 -184 0
-181 -185 0
-182 -183 0
-182 -184 0
-182 -185 0
-183 -184 0
-183 -185 0
-184 -185 0
-186 -187 0
-186 -188 0
-186 -189 0
-186 -190 0
-187 -188 0
-187 -189 0
-187 -190 0
-188 -189 0
-188 -190 0
-189 -190 0
-191 -192 0
-191 -193 0
-191 -194 0
-191 -195 0
-192 -193 0
-192 -194 0
-192 -195 0
-193 -194 0
-193 -195 0
-194 -195 0
-196 -197 0
-196 -198 0
-196 -199 0
-196 -200 0
-197 -198 0
-197 -199 0
-197 -200 0
-198 -199 0
-198 -200 0
-199 -200 0
-1 -11 0
-2 -12 0
-3 -13 0
-4 -14 0
-5 -15 0
-1 -16 0
-2 -17 0
-3 -18 0
-4 -19 0
-5 -20 0
-1 -21 0
-2 -22 0
-3 -23 0
-4 -24 0
-5 -25 0
-1 -36 0
-2 -37 0
-3 -38 0
-4 -39 0
-5 -40 0
-1 -41 0
-2 -42 0
-3 -43 0
-4 -44 0
-5 -45 0
-1 -46 0
-2 -47 0
-3 -48 0
-4 -49 0
-5 -50 0
-1 -51 0
-2 -52 0
-3 -53 0
-4 -54 0
-5 -55 0
-1 -56 0
-2 -57 0
-3 -58 0
-4 -59 0
-5 -60 0
-1 -66 0
-2 -67 0
-3 -68 0
-4 -69 0
-5 -70 0
-1 -76 0
-2 -77 0
-3 -78 0
-4 -79 0
-5 -80 0
-1 -86 0
-2 -87 0
-3 -88 0
-4 -89 0
-5 -90 0
-1 -91 0
-2 -92 0
-3 -93 0
-4 -94 0
-5 -95 0
-1 -96 0
-2 -97 0
-3 -98 0
-4 -99 0
-5 -100 0
-1 -116 0
-2 -117 0
-3 -118 0
-4 -119 0
-5 -120 0
-1 -121 0
-2 -122 0
-3 -123 0
-4 -124 0
-5 -125 0
-1 -126 0
-2 -127 0
-3 -128 0
-4 -129 0
-5 -130 0
-1 -131 0
-2 -132 0
-3 -133 0
-4 -134 0
-5 -135 0
-1 -136 0
-2 -137 0
-3 -138 0
-4 -139 0
-5 -140 0
-1 -141 0
-2 -142 0
-3 -143 0
-4 -144 0
-5 -145 0
-1 -146 0
-2 -147 0
-3 -148 0
-4 -149 0
-5 -150 0
-1 -151 0
-2 -152 0
-3 -153 0
-4 -154 0
-5 -155 0
-1 -166 0
-2 -167 0
-3 -168 0
-4 -169 0
-5 -170 0
-1 -171 0
-2 -172 0
-3 -173 0
-4 -174 0
-5 -175 0
-1 -181 0
-2 -182 0
-3 -183 0
-4 -184 0
-5 -185 0
-1 -186 0
-2 -187 0
-3 -188 0
-4 -189 0
-5 -190 0
-1 -191 0
-2 -192 0
-3 -193 0
-4 -194 0
-5 -195 0
-1 -196 0
-2 -197 0
-3 -198 0
-4 -199 0
-5 -200 0
-6 -16 0
-7 -17 0
-8 -18 0
-9 -19 0
-10 -20 0
-6 -21 0
-7 -22 0
-8 -23 0
-9 -24 0
-10 -25 0
-6 -31 0
-7 -32 0
-8 -33 0
-9 -34 0
-10 -35 0
-6 -36 0
-7 -37 0
-8 -38 0
-9 -39 0
-10 -40 0
-6 -41 0
-7 -42 0
-8 -43 0
-9 -44 0
-10 -45 0
-6 -46 0
-7 -47 0
-8 -48 0
-9 -49 0
-10 -50 0
-6 -51 0
-7 -52 0
-8 -53 0
-9 -54 0
-10 -55 0
-6 -61 0
-7 -62 0
-8 -63 0
-9 -64 0
-10 -65 0
-6 -96 0
-7 -97 0
-8 -98 0
-9 -99 0
-10 -100 0
-6 -106 0
-7 -107 0
-8 -108 0
-9 -109 0
-10 -110 0
-6 -136 0
-7 -137 0
-8 -138 0
-9 -139 0
-10 -140 0
-6 -151 0
-7 -152 0
-8 -153 0
-9 -154 0
-10 -155 0
-6 -166 0
-7 -167 0
-8 -168 0
-9 -169 0
-10 -170 0
-6 -171 0
-7 -172 0
-8 -173 0
-9 -174 0
-10 -175 0
-6 -176 0
-7 -177 0
-8 -178 0
-9 -179 0
-10 -180 0
-6 -186 0
-7 -187 0
-8 -188 0
-9 -189 0
-10 -190 0
-6 -196 0
-7 -197 0
-8 -198 0
-9 -199 0
-10 -200 0
-11 -16 0
-12 -17 0
-13 -18 0
-14 -19 0
-15 -20 0
-11 -21 0
-12 -22 0
-13 -23 0
-14 -24 0
-15 -25 0
-11 -26 0
-12 -27 0
-13 -28 0
-14 -29 0
-15 -30 0
-11 -31 0
-12 -32 0
-13 -33 0
-14 -34 0
-15 -35 0
-11 -36 0
-12 -37 0
-13 -38 0
-14 -39 0
-15 -40 0
-11 -41 0
-12 -42 0
-13 -43 0
-14 -44 0
-15 -45 0
-11 -51 0
-12 -52 0
-13 -53 0
-14 -54 0
-15 -55 0
-11 -61 0
-12 -62 0
-13 -63 0
-14 -64 0
-15 -65 0
-11 -66 0
-12 -67 0
-13 -68 0
-14 -69 0
-15 -70 0
-11 -76 0
-12 -77 0
-13 -78 0
-14 -79 0
-15 -80 0
-11 -86 0
-12 -87 0
-13 -88 0
-14 -89 0
-15 -90 0
-11 -91 0
-12 -92 0
-13 -93 0
-14 -94 0
-15 -95 0
-11 -101 0
-12 -102 0
-13 -103 0
-14 -104 0
-15 -105 0
-11 -111 0
-12 -112 0
-13 -113 0
-14 -114 0
-15 -115 0
-11 -116 0
-12 -117 0
-13 -118 0
-14 -119 0
-15 -120 0
-11 -126 0
-12 -127 0
-13 -128 0
-14 -129 0
-15 -130 0
-11 -136 0
-12 -137 0
-13 -138 0
-14 -139 0
-15 -140 0
-11 -141 0
-12 -142 0
-13 -143 0
-14 -144 0
-15 -145 0
-11 -146 0
-12 -147 0
-13 -148 0
-14 -149 0
-15 -150 0
-11 -151 0
-12 -152 0
-13 -153 0
-14 -154 0
-15 -155 0
-11 -156 0
-12 -157 0
-13 -158 0
-14 -159 0
-15 -160 0
-11 -161 0
-12 -162 0
-13 -163 0
-14 -164 0
-15 -165 0
-11 -166 0
-12 -167 0
-13 -168 0
-14 -169 0
-15 -170 0
-11 -181 0
-12 -182 0
-13 -183 0
-14 -184 0
-15 -185 0
-11 -186 0
-12 -187 0
-13 -188 0
-14 -189 0
-15 -190 0
-11 -191 0
-12 -192 0
-13 -193 0
-14 -194 0
-15 -195 0
-11 -196 0
-12 -197 0
-13 -198 0
-14 -199 0
-15 -200 0
-16 -21 0
-17 -22 0
-18 -23 0
-19 -24 0
-20 -25 0
-16 -26 0
-17 -27 0
-18 -28 0
-19 -29 0
-20 -30 0
-16 -46 0
-17 -47 0
-18 -48 0
-19 -49 0
-20 -50 0
-16 -51 0
-17 -52 0
-18 -53 0
-19 -54 0
-20 -55 0
-16 -61 0
-17 -62 0
-18 -63 0
-19 -64 0
-20 -65 0
-16 -66 0
-17 -67 0
-18 -68 0
-19 -69 0
-20 -70 0
-16 -81 0
-17 -82 0
-18 -83 0
-19 -84 0
-20 -85 0
-16 -86 0
-17 -87 0
-18 -88 0
-19 -89 0
-20 -90 0
-16 -91 0
-17 -92 0
-18 -93 0
-19 -94 0
-20 -95 0
-16 -101 0
-17 -102 0
-18 -103 0
-19 -104 0
-20 -105 0
-16 -106 0
-17 -107 0
-18 -108 0
-19 -109 0
-20 -110 0
-16 -111 0
-17 -112 0
-18 -113 0
-19 -114 0
-20 -115 0
-16 -116 0
-17 -117 0
-18 -118 0
-19 -119 0
-20 -120 0
-16 -141 0
-17 -142 0
-18 -143 0
-19 -144 0
-20 -145 0
-16 -146 0
-17 -147 0
-18 -148 0
-19 -149 0
-20 -150 0
-16 -166 0
-17 -167 0
-18 -168 0
-19 -169 0
-20 -170 0
-16 -171 0
-17 -172 0
-18 -173 0
-19 -174 0
-20 -175 0
-16 -176 0
-17 -177 0
-18 -178 0
-19 -179 0
-20 -180 0
-16 -181 0
-17 -182 0
-18 -183 0
-19 -184 0
-20 -185 0
-16 -186 0
-17 -187 0
-18 -188 0
-19 -189 0
-20 -190 0
-21 -26 0
-22 -27 0
-23 -28 0
-24 -29 0
-25 -30 0
-21 -31 0
-22 -32 0
-23 -33 0
-24 -34 0
-25 -35 0
-21 -36 0
-22 -37 0
-23 -38 0
-24 -39 0
-25 -40 0
-21 -46 0
-22 -47 0
-23 -48 0
-24 -49 0
-25 -50 0
-21 -51 0
-22 -52 0
-23 -53 0
-24 -54 0
-25 -55 0
-21 -56 0
-22 -57 0
-23 -58 0
-24 -59 0
-25 -60 0
-21 -61 0
-22 -62 0
-23 -63 0
-24 -64 0
-25 -65 0
-21 -66 0
-22 -67 0
-23 -68 0
-24 -69 0
-25 -70 0
-21 -71 0
-22 -72 0
-23 -73 0
-24 -74 0
-25 -75 0
-21 -81 0
-22 -82 0
-23 -83 0
-24 -84 0
-25 -85 0
-21 -86 0
-22 -87 0
-23 -88 0
-24 -89 0
-25 -90 0
-21 -91 0
-22 -92 0
-23 -93 0
-24 -94 0
-25 -95 0
-21 -96 0
-22 -97 0
-23 -98 0
-24 -99 0
-25 -100 0
-21 -101 0
-22 -102 0
-23 -103 0
-24 -104 0
-25 -105 0
-21 -111 0
-22 -112 0
-23 -113 0
-24 -114 0
-25 -115 0
-21 -121 0
-22 -122 0
-23 -123 0
-24 -124 0
-25 -125 0
-21 -126 0
-22 -127 0
-23 -128 0
-24 -129 0
-25 -130 0
-21 -136 0
-22 -137 0
-23 -138 0
-24 -139 0
-25 -140 0
-21 -141 0
-22 -142 0
-23 -143 0
-24 -144 0
-25 -145 0
-21 -146 0
-22 -147 0
-23 -148 0
-24 -149 0
-25 -150 0
-21 -151 0
-22 -152 0
-23 -153 0
-24 -154 0
-25 -155 0
-21 -161 0
-22 -162 0
-23 -163 0
-24 -164 0
-25 -165 0
-21 -196 0
-22 -197 0
-23 -198 0
-24 -199 0
-25 -200 0
-26 -31 0
-27 -32 0
-28 -33 0
-29 -34 0
-30 -35 0
-26 -56 0
-27 -57 0
-28 -58 0
-29 -59 0
-30 -60 0
-26 -76 0
-27 -77 0
-28 -78 0
-29 -79 0
-30 -80 0
-26 -86 0
-27 -87 0
-28 -88 0
-29 -89 0
-30 -90 0
-26 -96 0
-27 -97 0
-28 -98 0
-29 -99 0
-30 -100 0
-26 -101 0
-27 -102 0
-28 -103 0
-29 -104 0
-30 -105 0
-26 -116 0
-27 -117 0
-28 -118 0
-29 -119 0
-30 -120 0
-26 -126 0
-27 -127 0
-28 -128 0
-29 -129 0
-30 -130 0
-26 -131 0
-27 -132 0
-28 -133 0
-29 -134 0
-30 -135 0
-26 -141 0
-27 -142 0
-28 -143 0
-29 -144 0
-30 -145 0
-26 -146 0
-27 -147 0
-28 -148 0
-29 -149 0
-30 -150 0
-26 -166 0
-27 -167 0
-28 -168 0
-29 -169 0
-30 -170 0
-26 -176 0
-27 -177 0
-28 -178 0
-29 -179 0
-30 -180 0
-26 -181 0
-27 -182 0
-28 -183 0
-29 -184 0
-30 -185 0
-26 -191 0
-27 -192 0
-28 -193 0
-29 -194 0
-30 -195 0
-26 -196 0
-27 -197 0
-28 -198 0
-29 -199 0
-30 -200 0
-31 -36 0
-32 -37 0
-33 -38 0
-34 -39 0
-35 -40 0
-31 -41 0
-32 -42 0
-33 -43 0
-34 -44 0
-35 -45 0
-31 -51 0
-32 -52 0
-33 -53 0
-34 -54 0
-35 -55 0
-31 -56 0
-32 -57 0
-33 -58 0
-34 -59 0
-35 -60 0
-31 -66 0
-32 -67 0
-33 -68 0
-34 -69 0
-35 -70 0
-31 -71 0
-32 -72 0
-33 -73 0
-34 -74 0
-35 -75 0
-31 -86 0
-32 -87 0
-33 -88 0
-34 -89 0
-35 -90 0
-31 -91 0
-32 -92 0
-33 -93 0
-34 -94 0
-35 -95 0
-31 -96 0
-32 -97 0
-33 -98 0
-34 -99 0
-35 -100 0
-31 -106 0
-32 -107 0
-33 -108 0
-34 -109 0
-35 -110 0
-31 -116 0
-32 -117 0
-33 -118 0
-34 -119 0
-35 -120 0
-31 -121 0
-32 -122 0
-33 -123 0
-34 -124 0
-35 -125 0
-31 -131 0
-32 -132 0
-33 -133 0
-34 -134 0
-35 -135 0
-31 -136 0
-32 -137 0
-33 -138 0
-34 -139 0
-35 -140 0
-31 -141 0
-32 -142 0
-33 -143 0
-34 -144 0
-35 -145 0
-31 -146 0
-32 -147 0
-33 -148 0
-34 -149 0
-35 -150 0
-31 -161 0
-32 -162 0
-33 -163 0
-34 -164 0
-35 -165 0
-31 -166 0
-32 -167 0
-33 -168 0
-34 -169 0
-35 -170 0
-31 -171 0
-32 -172 0
-33 -173 0
-34 -174 0
-35 -175 0
-31 -176 0
-32 -177 0
-33 -178 0
-34 -179 0
-35 -180 0
-31 -181 0
-32 -182 0
-33 -183 0
-34 -184 0
-35 -185 0
-31 -186 0
-32 -187 0
-33 -188 0
-34 -189 0
-35 -190 0
-31 -196 0
-32 -197 0
-33 -198 0
-34 -199 0
-35 -200 0
-36 -61 0
-37 -62 0
-38 -63 0
-39 -64 0
-40 -65 0
-36 -71 0
-37 -72 0
-38 -73 0
-39 -74 0
-40 -75 0
-36 -76 0
-37 -77 0
-38 -78 0
-39 -79 0
-40 -80 0
-36 -81 0
-37 -82 0
-38 -83 0
-39 -84 0
-40 -85 0
-36 -101 0
-37 -102 0
-38 -103 0
-39 -104 0
-40 -105 0
-36 -106 0
-37 -107 0
-38 -108 0
-39 -109 0
-40 -110 0
-36 -111 0
-37 -112 0
-38 -113 0
-39 -114 0
-40 -115 0
-36 -116 0
-37 -117 0
-38 -118 0
-39 -119 0
-40 -120 0
-36 -126 0
-37 -127 0
-38 -128 0
-39 -129 0
-40 -130 0
-36 -136 0
-37 -137 0
-38 -138 0
-39 -139 0
-40 -140 0
-36 -141 0
-37 -142 0
-38 -143 0
-39 -144 0
-40 -145 0
-36 -151 0
-37 -152 0
-38 -153 0
-39 -154 0
-40 -155 0
-36 -156 0
-37 -157 0
-38 -158 0
-39 -159 0
-40 -160 0
-36 -161 0
-37 -162 0
-38 -163 0
-39 -164 0
-40 -165 0
-36 -166 0
-37 -167 0
-38 -168 0
-39 -169 0
-40 -170 0
-36 -186 0
-37 -187 0
-38 -188 0
-39 -189 0
-40 -190 0
-41 -51 0
-42 -52 0
-43 -53 0
-44 -54 0
-45 -55 0
-41 -61 0
-42 -62 0
-43 -63 0
-44 -64 0
-45 -65 0
-41 -66 0
-42 -67 0
-43 -68 0
-44 -69 0
-45 -70 0
-41 -71 0
-42 -72 0
-43 -73 0
-44 -74 0
-45 -75 0
-41 -86 0
-42 -87 0
-43 -88 0
-44 -89 0
-45 -90 0
-41 -106 0
-42 -107 0
-43 -108 0
-44 -109 0
-45 -110 0
-41 -111 0
-42 -112 0
-43 -113 0
-44 -114 0
-45 -115 0
-41 -121 0
-42 -122 0
-43 -123 0
-44 -124 0
-45 -125 0
-41 -126 0
-42 -127 0
-43 -128 0
-44 -129 0
-45 -130 0
-41 -151 0
-42 -152 0
-43 -153 0
-44 -154 0
-45 -155 0
-41 -161 0
-42 -162 0
-43 -163 0
-44 -164 0
-45 -165 0
-41 -166 0
-42 -167 0
-43 -168 0
-44 -169 0
-45 -170 0
-41 -176 0
-42 -177 0
-43 -178 0
-44 -179 0
-45 -180 0
-41 -181 0
-42 -182 0
-43 -183 0
-44 -184 0
-45 -185 0
-41 -186 0
-42 -187 0
-43 -188 0
-44 -189 0
-45 -190 0
-41 -191 0
-42 -192 0
-43 -193 0
-44 -194 0
-45 -195 0
-41 -196 0
-42 -197 0
-43 -198 0
-44 -199 0
-45 -200 0
-46 -51 0
-47 -52 0
-48 -53 0
-49 -54 0
-50 -55 0
-46 -61 0
-47 -62 0
-48 -63 0
-49 -64 0
-50 -65 0
-46 -66 0
-47 -67 0
-48 -68 0
-49 -69 0
-50 -70 0
-46 -81 0
-47 -82 0
-48 -83 0
-49 -84 0
-50 -85 0
-46 -91 0
-47 -92 0
-48 -93 0
-49 -94 0
-50 -95 0
-46 -96 0
-47 -97 0
-48 -98 0
-49 -99 0
-50 -100 0
-46 -101 0
-47 -102 0
-48 -103 0
-49 -104 0
-50 -105 0
-46 -111 0
-47 -112 0
-48 -113 0
-49 -114 0
-50 -115 0
-46 -126 0
-47 -127 0
-48 -128 0
-49 -129 0
-50 -130 0
-46 -131 0
-47 -132 0
-48 -133 0
-49 -134 0
-50 -135 0
-46 -136 0
-47 -137 0
-48 -138 0
-49 -139 0
-50 -140 0
-46 -141 0
-47 -142 0
-48 -143 0
-49 -144 0
-50 -145 0
-46 -156 0
-47 -157 0
-48 -158 0
-49 -159 0
-50 -160 0
-46 -161 0
-47 -162 0
-48 -163 0
-49 -164 0
-50 -165 0
-46 -166 0
-47 -167 0
-48 -168 0
-49 -169 0
-50 -170 0
-46 -176 0
-47 -177 0
-48 -178 0
-49 -179 0
-50 -180 0
-46 -181 0
-47 -182 0
-48 -183 0
-49 -184 0
-50 -185 0
-46 -186 0
-47 -187 0
-48 -188 0
-49 -189 0
-50 -190 0
-46 -196 0
-47 -197 0
-48 -198 0
-49 -199 0
-50 -200 0
-51 -56 0
-52 -57 0
-53 -58 0
-54 -59 0
-55 -60 0
-51 -61 0
-52 -62 0
-53 -63 0
-54 -64 0
-55 -65 0
-51 -76 0
-52 -77 0
-53 -78 0
-54 -79 0
-55 -80 0
-51 -91 0
-52 -92 0
-53 -93 0
-54 -94 0
-55 -95 0
-51 -101 0
-52 -102 0
-53 -103 0
-54 -104 0
-55 -105 0
-51 -106 0
-52 -107 0
-53 -108 0
-54 -109 0
-55 -110 0
-51 -111 0
-52 -112 0
-53 -113 0
-54 -114 0
-55 -115 0
-51 -116 0
-52 -117 0
-53 -118 0
-54 -119 0
-55 -120 0
-51 -131 0
-52 -132 0
-53 -133 0
-54 -134 0
-55 -135 0
-51 -136 0
-52 -137 0
-53 -138 0
-54 -139 0
-55 -140 0
-51 -146 0
-52 -147 0
-53 -148 0
-54 -149 0
-55 -150 0
-51 -156 0
-52 -157 0
-53 -158 0
-54 -159 0
-55 -160 0
-51 -161 0
-52 -162 0
-53 -163 0
-54 -164 0
-55 -165 0
-51 -166 0
-52 -167 0
-53 -168 0
-54 -169 0
-55 -170 0
-56 -61 0
-57 -62 0
-58 -63 0
-59 -64 0
-60 -65 0
-56 -66 0
-57 -67 0
-58 -68 0
-59 -69 0
-60 -70 0
-56 -81 0
-57 -82 0
-58 -83 0
-59 -84 0
-60 -85 0
-56 -91 0
-57 -92 0
-58 -93 0
-59 -94 0
-60 -95 0
-56 -106 0
-57 -107 0
-58 -108 0
-59 -109 0
-60 -110 0
-56 -116 0
-57 -117 0
-58 -118 0
-59 -119 0
-60 -120 0
-56 -126 0
-57 -127 0
-58 -128 0
-59 -129 0
-60 -130 0
-56 -136 0
-57 -137 0
-58 -138 0
-59 -139 0
-60 -140 0
-56 -141 0
-57 -142 0
-58 -143 0
-59 -144 0
-60 -145 0
-56 -151 0
-57 -152 0
-58 -153 0
-59 -154 0
-60 -155 0
-56 -166 0
-57 -167 0
-58 -168 0
-59 -169 0
-60 -170 0
-56 -181 0
-57 -182 0
-58 -183 0
-59 -184 0
-60 -185 0
-56 -186 0
-57 -187 0
-58 -188 0
-59 -189 0
-60 -190 0
-56 -191 0
-57 -192 0
-58 -193 0
-59 -194 0
-60 -195 0
-56 -196 0
-57 -197 0
-58 -198 0
-59 -199 0
-60 -200 0
-61 -81 0
-62 -82 0
-63 -83 0
-64 -84 0
-65 -85 0
-61 -86 0
-62 -87 0
-63 -88 0
-64 -89 0
-65 -90 0
-61 -91 0
-62 -92 0
-63 -93 0
-64 -94 0
-65 -95 0
-61 -106 0
-62 -107 0
-63 -108 0
-64 -109 0
-65 -110 0
-61 -111 0
-62 -112 0
-63 -113 0
-64 -114 0
-65 -115 0
-61 -116 0
-62 -117 0
-63 -118 0
-64 -119 0
-65 -120 0
-61 -121 0
-62 -122 0
-63 -123 0
-64 -124 0
-65 -125 0
-61 -126 0
-62 -127 0
-63 -128 0
-64 -129 0
-65 -130 0
-61 -131 0
-62 -132 0
-63 -133 0
-64 -134 0
-65 -135 0
-61 -136 0
-62 -137 0
-63 -138 0
-64 -139 0
-65 -140 0
-61 -156 0
-62 -157 0
-63 -158 0
-64 -159 0
-65 -160 0
-61 -161 0
-62 -162 0
-63 -163 0
-64 -164 0
-65 -165 0
-61 -176 0
-62 -177 0
-63 -178 0
-64 -179 0
-65 -180 0
-61 -186 0
-62 -187 0
-63 -188 0
-64 -189 0
-65 -190 0
-61 -196 0
-62 -197 0
-63 -198 0
-64 -199 0
-65 -200 0
-66 -71 0
-67 -72 0
-68 -73 0
-69 -74 0
-70 -75 0
-66 -76 0
-67 -77 0
-68 -78 0
-69 -79 0
-70 -80 0
-66 -81 0
-67 -82 0
-68 -83 0
-69 -84 0
-70 -85 0
-66 -86 0
-67 -87 0
-68 -88 0
-69 -89 0
-70 -90 0
-66 -91 0
-67 -92 0
-68 -93 0
-69 -94 0
-70 -95 0
-66 -96 0
-67 -97 0
-68 -98 0
-69 -99 0
-70 -100 0
-66 -111 0
-67 -112 0
-68 -113 0
-69 -114 0
-70 -115 0
-66 -116 0
-67 -117 0
-68 -118 0
-69 -119 0
-70 -120 0
-66 -126 0
-67 -127 0
-68 -128 0
-69 -129 0
-70 -130 0
-66 -136 0
-67 -137 0
-68 -138 0
-69 -139 0
-70 -140 0
-66 -151 0
-67 -152 0
-68 -153 0
-69 -154 0
-70 -155 0
-66 -156 0
-67 -157 0
-68 -158 0
-69 -159 0
-70 -160 0
-66 -161 0
-67 -162 0
-68 -163 0
-69 -164 0
-70 -165 0
-66 -166 0
-67 -167 0
-68 -168 0
-69 -169 0
-70 -170 0
-66 -171 0
-67 -172 0
-68 -173 0
-69 -174 0
-70 -175 0
-66 -176 0
-67 -177 0
-68 -178 0
-69 -179 0
-70 -180 0
-66 -181 0
-67 -182 0
-68 -183 0
-69 -184 0
-70 -185 0
-66 -186 0
-67 -187 0
-68 -188 0
-69 -189 0
-70 -190 0
-66 -191 0
-67 -192 0
-68 -193 0
-69 -194 0
-70 -195 0
-71 -76 0
-72 -77 0
-73 -78 0
-74 -79 0
-75 -80 0
-71 -101 0
-72 -102 0
-73 -103 0
-74 -104 0
-75 -105 0
-71 -106 0
-72 -107 0
-73 -108 0
-74 -109 0
-75 -110 0
-71 -111 0
-72 -112 0
-73 -113 0
-74 -114 0
-75 -115 0
-71 -116 0
-72 -117 0
-73 -118 0
-74 -119 0
-75 -120 0
-71 -121 0
-72 -122 0
-73 -123 0
-74 -124 0
-75 -125 0
-71 -131 0
-72 -132 0
-73 -133 0
-74 -134 0
-75 -135 0
-71 -136 0
-72 -137 0
-73 -138 0
-74 -139 0
-75 -140 0
-71 -141 0
-72 -142 0
-73 -143 0
-74 -144 0
-75 -145 0
-71 -151 0
-72 -152 0
-73 -153 0
-74 -154 0
-75 -155 0
-71 -166 0
-72 -167 0
-73 -168 0
-74 -169 0
-75 -170 0
-71 -186 0
-72 -187 0
-73 -188 0
-74 -189 0
-75 -190 0
-71 -196 0
-72 -197 0
-73 -198 0
-74 -199 0
-75 -200 0
-76 -86 0
-77 -87 0
-78 -88 0
-79 -89 0
-80 -90 0
-76 -101 0
-77 -102 0
-78 -103 0
-79 -104 0
-80 -105 0
-76 -106 0
-77 -107 0
-78 -108 0
-79 -109 0
-80 -110 0
-76 -121 0
-77 -122 0
-78 -123 0
-79 -124 0
-80 -125 0
-76 -126 0
-77 -127 0
-78 -128 0
-79 -129 0
-80 -130 0
-76 -146 0
-77 -147 0
-78 -148 0
-79 -149 0
-80 -150 0
-76 -151 0
-77 -152 0
-78 -153 0
-79 -154 0
-80 -155 0
-76 -166 0
-77 -167 0
-78 -168 0
-79 -169 0
-80 -170 0
-76 -171 0
-77 -172 0
-78 -173 0
-79 -174 0
-80 -175 0
-76 -181 0
-77 -182 0
-78 -183 0
-79 -184 0
-80 -185 0
-76 -186 0
-77 -187 0
-78 -188 0
-79 -189 0
-80 -190 0
-76 -191 0
-77 -192 0
-78 -193 0
-79 -194 0
-80 -195 0
-81 -86 0
-82 -87 0
-83 -88 0
-84 -89 0
-85 -90 0
-81 -91 0
-82 -92 0
-83 -93 0
-84 -94 0
-85 -95 0
-81 -96 0
-82 -97 0
-83 -98 0
-84 -99 0
-85 -100 0
-81 -101 0
-82 -102 0
-83 -103 0
-84 -104 0
-85 -105 0
-81 -106 0
-82 -107 0
-83 -108 0
-84 -109 0
-85 -110 0
-81 -111 0
-82 -112 0
-83 -113 0
-84 -114 0
-85 -115 0
-81 -121 0
-82 -122 0
-83 -123 0
-84 -124 0
-85 -125 0
-81 -126 0
-82 -127 0
-83 -128 0
-84 -129 0
-85 -130 0
-81 -131 0
-82 -132 0
-83 -133 0
-84 -134 0
-85 -135 0
-81 -136 0
-82 -137 0
-83 -138 0
-84 -139 0
-85 -140 0
-81 -141 0
-82 -142 0
-83 -143 0
-84 -144 0
-85 -145 0
-81 -146 0
-82 -147 0
-83 -148 0
-84 -149 0
-85 -150 0
-81 -151 0
-82 -152 0
-83 -153 0
-84 -154 0
-85 -155 0
-81 -156 0
-82 -157 0
-83 -158 0
-84 -159 0
-85 -160 0
-81 -161 0
-82 -162 0
-83 -163 0
-84 -164 0
-85 -165 0
-81 -166 0
-82 -167 0
-83 -168 0
-84 -169 0
-85 -170 0
-81 -176 0
-82 -177 0
-83 -178 0
-84 -179 0
-85 -180 0
-81 -191 0
-82 -192 0
-83 -193 0
-84 -194 0
-85 -195 0
-81 -196 0
-82 -197 0
-83 -198 0
-84 -199 0
-85 -200 0
-86 -101 0
-87 -102 0
-88 -103 0
-89 -104 0
-90 -105 0
-86 -116 0
-87 -117 0
-88 -118 0
-89 -119 0
-90 -120 0
-86 -126 0
-87 -127 0
-88 -128 0
-89 -129 0
-90 -130 0
-86 -136 0
-87 -137 0
-88 -138 0
-89 -139 0
-90 -140 0
-86 -161 0
-87 -162 0
-88 -163 0
-89 -164 0
-90 -165 0
-86 -166 0
-87 -167 0
-88 -168 0
-89 -169 0
-90 -170 0
-86 -171 0
-87 -172 0
-88 -173 0
-89 -174 0
-90 -175 0
-86 -176 0
-87 -177 0
-88 -178 0
-89 -179 0
-90 -180 0
-86 -181 0
-87 -182 0
-88 -183 0
-89 -184 0
-90 -185 0
-86 -186 0
-87 -187 0
-88 -188 0
-89 -189 0
-90 -190 0
-86 -191 0
-87 -192 0
-88 -193 0
-89 -194 0
-90 -195 0
-86 -196 0
-87 -197 0
-88 -198 0
-89 -199 0
-90 -200 0
-91 -101 0
-92 -102 0
-93 -103 0
-94 -104 0
-95 -105 0
-91 -106 0
-92 -107 0
-93 -108 0
-94 -109 0
-95 -110 0
-91 -116 0
-92 -117 0
-93 -118 0
-94 -119 0
-95 -120 0
-91 -126 0
-92 -127 0
-93 -128 0
-94 -129 0
-95 -130 0
-91 -136 0
-92 -137 0
-93 -138 0
-94 -139 0
-95 -140 0
-91 -146 0
-92 -147 0
-93 -148 0
-94 -149 0
-95 -150 0
-91 -151 0
-92 -152 0
-93 -153 0
-94 -154 0
-95 -155 0
-91 -156 0
-92 -157 0
-93 -158 0
-94 -159 0
-95 -160 0
-91 -161 0
-92 -162 0
-93 -163 0
-94 -164 0
-95 -165 0
-91 -166 0
-92 -167 0
-93 -168 0
-94 -169 0
-95 -170 0
-91 -176 0
-92 -177 0
-93 -178 0
-94 -179 0
-95 -180 0
-91 -181 0
-92 -182 0
-93 -183 0
-94 -184 0
-95 -185 0
-91 -191 0
-92 -192 0
-93 -193 0
-94 -194 0
-95 -195 0
-91 -196 0
-92 -197 0
-93 -198 0
-94 -199 0
-95 -200 0
-96 -131 0
-97 -132 0
-98 -133 0
-99 -134 0
-100 -135 0
-96 -136 0
-97 -137 0
-98 -138 0
-99 -139 0
-100 -140 0
-96 -141 0
-97 -142 0
-98 -143 0
-99 -144 0
-100 -145 0
-96 -146 0
-97 -147 0
-98 -148 0
-99 -149 0
-100 -150 0
-96 -151 0
-97 -152 0
-98 -153 0
-99 -154 0
-100 -155 0
-96 -156 0
-97 -157 0
-98 -158 0
-99 -159 0
-100 -160 0
-96 -161 0
-97 -162 0
-98 -163 0
-99 -164 0
-100 -165 0
-96 -166 0
-97 -167 0
-98 -168 0
-99 -169 0
-100 -170 0
-96 -171 0
-97 -172 0
-98 -173 0
-99 -174 0
-100 -175 0
-96 -176 0
-97 -177 0
-98 -178 0
-99 -179 0
-100 -180 0
-96 -181 0
-97 -182 0
-98 -183 0
-99 -184 0
-100 -185 0
-96 -186 0
-97 -187 0
-98 -188 0
-99 -189 0
-100 -190 0
-96 -191 0
-97 -192 0
-98 -193 0
-99 -194 0
-100 -195 0
-101 -106 0
-102 -107 0
-103 -108 0
-104 -109 0
-105 -110 0
-101 -116 0
-102 -117 0
-103 -118 0
-104 -119 0
-105 -120 0
-101 -126 0
-102 -127 0
-103 -128 0
-104 -129 0
-105 -130 0
-101 -131 0
-102 -132 0
-103 -133 0
-104 -134 0
-105 -135 0
-101 -136 0
-102 -137 0
-103 -138 0
-104 -139 0
-105 -140 0
-101 -141 0
-102 -142 0
-103 -143 0
-104 -144 0
-105 -145 0
-101 -146 0
-102 -147 0
-103 -148 0
-104 -149 0
-105 -150 0
-101 -151 0
-102 -152 0
-103 -153 0
-104 -154 0
-105 -155 0
-101 -156 0
-102 -157 0
-103 -158 0
-104 -159 0
-105 -160 0
-101 -161 0
-102 -162 0
-103 -163 0
-104 -164 0
-105 -165 0
-101 -166 0
-102 -167 0
-103 -168 0
-104 -169 0
-105 -170 0
-101 -176 0
-102 -177 0
-103 -178 0
-104 -179 0
-105 -180 0
-101 -181 0
-102 -182 0
-103 -183 0
-104 -184 0
-105 -185 0
-101 -191 0
-102 -192 0
-103 -193 0
-104 -194 0
-105 -195 0
-106 -111 0
-107 -112 0
-108 -113 0
-109 -114 0
-110 -115 0
-106 -126 0
-107 -127 0
-108 -128 0
-109 -129 0
-110 -130 0
-106 -131 0
-107 -132 0
-108 -133 0
-109 -134 0
-110 -135 0
-106 -136 0
-107 -137 0
-108 -138 0
-109 -139 0
-110 -140 0
-106 -146 0
-107 -147 0
-108 -148 0
-109 -149 0
-110 -150 0
-106 -151 0
-107 -152 0
-108 -153 0
-109 -154 0
-110 -155 0
-106 -156 0
-107 -157 0
-108 -158 0
-109 -159 0
-110 -160 0
-106 -161 0
-107 -162 0
-108 -163 0
-109 -164 0
-110 -165 0
-106 -171 0
-107 -172 0
-108 -173 0
-109 -174 0
-110 -175 0
-106 -176 0
-107 -177 0
-108 -178 0
-109 -179 0
-110 -180 0
-106 -186 0
-107 -187 0
-108 -188 0
-109 -189 0
-110 -190 0
-111 -116 0
-112 -117 0
-113 -118 0
-114 -119 0
-115 -120 0
-111 -121 0
-112 -122 0
-113 -123 0
-114 -124 0
-115 -125 0
-111 -126 0
-112 -127 0
-113 -128 0
-114 -129 0
-115 -130 0
-111 -131 0
-112 -132 0
-113 -133 0
-114 -134 0
-115 -135 0
-111 -136 0
-112 -137 0
-113 -138 0
-114 -139 0
-115 -140 0
-111 -146 0
-112 -147 0
-113 -148 0
-114 -149 0
-115 -150 0
-111 -156 0
-112 -157 0
-113 -158 0
-114 -159 0
-115 -160 0
-111 -166 0
-112 -167 0
-113 -168 0
-114 -169 0
-115 -170 0
-111 -181 0
-112 -182 0
-113 -183 0
-114 -184 0
-115 -185 0
-111 -196 0
-112 -197 0
-113 -198 0
-114 -199 0
-115 -200 0
-116 -136 0
-117 -137 0
-118 -138 0
-119 -139 0
-120 -140 0
-116 -141 0
-117 -142 0
-118 -143 0
-119 -144 0
-120 -145 0
-116 -146 0
-117 -147 0
-118 -148 0
-119 -149 0
-120 -150 0
-116 -151 0
-117 -152 0
-118 -153 0
-119 -154 0
-120 -155 0
-116 -156 0
-117 -157 0
-118 -158 0
-119 -159 0
-120 -160 0
-116 -161 0
-117 -162 0
-118 -163 0
-119 -164 0
-120 -165 0
-116 -166 0
-117 -167 0
-118 -168 0
-119 -169 0
-120 -170 0
-116 -176 0
-117 -177 0
-118 -178 0
-119 -179 0
-120 -180 0
-116 -181 0
-117 -182 0
-118 -183 0
-119 -184 0
-120 -185 0
-116 -186 0
-117 -187 0
-118 -188 0
-119 -189 0
-120 -190 0
-116 -191 0
-117 -192 0
-118 -193 0
-119 -194 0
-120 -195 0
-116 -196 0
-117 -197 0
-118 -198 0
-119 -199 0
-120 -200 0
-121 -126 0
-122 -127 0
-123 -128 0
-124 -129 0
-125 -130 0
-121 -131 0
-122 -132 0
-123 -133 0
-124 -134 0
-125 -135 0
-121 -136 0
-122 -137 0
-123 -138 0
-124 -139 0
-125 -140 0
-121 -156 0
-122 -157 0
-123 -158 0
-124 -159 0
-125 -160 0
-121 -171 0
-122 -172 0
-123 -173 0
-124 -174 0
-125 -175 0
-121 -176 0
-122 -177 0
-123 -178 0
-124 -179 0
-125 -180 0
-121 -181 0
-122 -182 0
-123 -183 0
-124 -184 0
-125 -185 0
-121 -186 0
-122 -187 0
-123 -188 0
-124 -189 0
-125 -190 0
-121 -191 0
-122 -192 0
-123 -193 0
-124 -194 0
-125 -195 0
-126 -136 0
-127 -137 0
-128 -138 0
-129 -139 0
-130 -140 0
-126 -156 0
-127 -157 0
-128 -158 0
-129 -159 0
-130 -160 0
-126 -161 0
-127 -162 0
-128 -163 0
-129 -164 0
-130 -165 0
-126 -166 0
-127 -167 0
-128 -168 0
-129 -169 0
-130 -170 0
-126 -171 0
-127 -172 0
-128 -173 0
-129 -174 0
-130 -175 0
-126 -186 0
-127 -187 0
-128 -188 0
-129 -189 0
-130 -190 0
-131 -136 0
-132 -137 0
-133 -138 0
-134 -139 0
-135 -140 0
-131 -141 0
-132 -142 0
-133 -143 0
-134 -144 0
-135 -145 0
-131 -161 0
-132 -162 0
-133 -163 0
-134 -164 0
-135 -165 0
-131 -176 0
-132 -177 0
-133 -178 0
-134 -179 0
-135 -180 0
-131 -181 0
-132 -182 0
-133 -183 0
-134 -184 0
-135 -185 0
-131 -186 0
-132 -187 0
-133 -188 0
-134 -189 0
-135 -190 0
-131 -191 0
-132 -192 0
-133 -193 0
-134 -194 0
-135 -195 0
-136 -141 0
-137 -142 0
-138 -143 0
-139 -144 0
-140 -145 0
-136 -146 0
-137 -147 0
-138 -148 0
-139 -149 0
-140 -150 0
-136 -166 0
-137 -167 0
-138 -168 0
-139 -169 0
-140 -170 0
-136 -171 0
-137 -172 0
-138 -173 0
-139 -174 0
-140 -175 0
-136 -176 0
-137 -177 0
-138 -178 0
-139 -179 0
-140 -180 0
-136 -181 0
-137 -182 0
-138 -183 0
-139 -184 0
-140 -185 0
-136 -186 0
-137 -187 0
-138 -188 0
-139 -189 0
-140 -190 0
-136 -196 0
-137 -197 0
-138 -198 0
-139 -199 0
-140 -200 0
-141 -146 0
-142 -147 0
-143 -148 0
-144 -149 0
-145 -150 0
-141 -156 0
-142 -157 0
-143 -158 0
-144 -159 0
-145 -160 0
-141 -161 0
-142 -162 0
-143 -163 0
-144 -164 0
-145 -165 0
-141 -166 0
-142 -167 0
-143 -168 0
-144 -169 0
-145 -170 0
-141 -171 0
-142 -172 0
-143 -173 0
-144 -174 0
-145 -175 0
-141 -191 0
-142 -192 0
-143 -193 0
-144 -194 0
-145 -195 0
-141 -196 0
-142 -197 0
-143 -198 0
-144 -199 0
-145 -200 0
-146 -161 0
-147 -162 0
-148 -163 0
-149 -164 0
-150 -165 0
-146 -171 0
-147 -172 0
-148 -173 0
-149 -174 0
-150 -175 0
-146 -186 0
-147 -187 0
-148 -188 0
-149 -189 0
-150 -190 0
-146 -191 0
-147 -192 0
-148 -193 0
-149 -194 0
-150 -195 0
-146 -196 0
-147 -197 0
-148 -198 0
-149 -199 0
-150 -200 0
-151 -161 0
-152 -162 0
-153 -163 0
-154 -164 0
-155 -165 0
-151 -166 0
-152 -167 0
-153 -168 0
-154 -169 0
-155 -170 0
-151 -171 0
-152 -172 0
-153 -173 0
-154 -174 0
-155 -175 0
-151 -176 0
-152 -177 0
-153 -178 0
-154 -179 0
-155 -180 0
-151 -181 0
-152 -182 0
-153 -183 0
-154 -184 0
-155 -185 0
-151 -191 0
-152 -192 0
-153 -193 0
-154 -194 0
-155 -195 0
-151 -196 0
-152 -197 0
-153 -198 0
-154 -199 0
-155 -200 0
-156 -161 0
-157 -162 0
-158 -163 0
-159 -164 0
-160 -165 0
-156 -166 0
-157 -167 0
-158 -168 0
-159 -169 0
-160 -170 0
-156 -171 0
-157 -172 0
-158 -173 0
-159 -174 0
-160 -175 0
-156 -181 0
-157 -182 0
-158 -183 0
-159 -184 0
-160 -185 0
-156 -186 0
-157 -187 0
-158 -188 0
-159 -189 0
-160 -190 0
-156 -196 0
-157 -197 0
-158 -198 0
-159 -199 0
-160 -200 0
-161 -171 0
-162 -172 0
-163 -173 0
-164 -174 0
-165 -175 0
-161 -176 0
-162 -177 0
-163 -178 0
-164 -179 0
-165 -180 0
-161 -181 0
-162 -182 0
-163 -183 0
-164 -184 0
-165 -185 0
-161 -186 0
-162 -187 0
-163 -188 0
-164 -189 0
-165 -190 0
-161 -191 0
-162 -192 0
-163 -193 0
-164 -194 0
-165 -195 0
-166 -171 0
-167 -172 0
-168 -173 0
-169 -174 0
-170 -175 0
-166 -176 0
-167 -177 0
-168 -178 0
-169 -179 0
-170 -180 0
-166 -196 0
-167 -197 0
-168 -198 0
-169 -199 0
-170 -200 0
-171 -181 0
-172 -182 0
-173 -183 0
-174 -184 0
-175 -185 0
-171 -191 0
-172 -192 0
-173 -193 0
-174 -194 0
-175 -195 0
-176 -181 0
-177 -182 0
-178 -183 0
-179 -184 0
-180 -185 0
-176 -186 0
-177 -187 0
-178 -188 0
-179 -189 0
-180 -190 0
-181 -196 0
-182 -197 0
-183 -198 0
-184 -199 0
-185 -200 0
-186 -191 0
-187 -192 0
-188 -193 0
-189 -194 0
-190 -195 0
-186 -196 0
-187 -197 0
-188 -198 0
-189 -199 0
-190 -200 0
